NAME : Problem-6-10-B
TYPE : HVRP
DIMENSION : 11
EDGE_WEIGHT_TYPE : EUC_2D

NODE_COORD_SECTION
1 20 20
2 37 52
5 20 26
8 17 63
10 52 33
12 42 41
14 5 25
15 12 42
16 36 16
18 27 23
20 13 13

DEMAND_SECTION
1 0
2 7
5 9
8 19
10 11
12 19
14 23
15 21
16 10
18 3
20 9

VEHICLE_TYPES
# id capacity fixed_cost var_cost
A 60  1000 1 
B 80  1500 1 
C 150 3000 1 
END_VEHICLE_TYPES

DEPOT_SECTION
1
-1
EOF
